SumColouring/JavaBacktracker/RandomInstances/28_0.25_2.col
c File: instances/28_0.25_2.col
c
c Description: Random graph of size 28 vertices and P(0.25) of edges between any two vertices.
p col 28 378
e 1 3
e 1 5
e 1 7
e 1 9
e 1 16
e 1 17
e 1 24
e 2 6
e 2 14
e 2 18
e 2 19
e 2 20
e 2 22
e 2 23
e 2 28
e 3 7
e 3 11
e 3 14
e 3 16
e 3 23
e 3 26
e 3 28
e 4 6
e 4 7
e 4 12
e 4 26
e 5 7
e 5 9
e 5 17
e 5 23
e 6 8
e 6 9
e 6 12
e 6 13
e 6 14
e 6 17
e 6 19
e 6 21
e 6 28
e 7 9
e 7 15
e 7 19
e 7 20
e 7 25
e 7 27
e 8 9
e 8 10
e 8 11
e 8 14
e 8 20
e 8 25
e 8 27
e 9 18
e 9 20
e 9 21
e 9 22
e 9 24
e 9 25
e 9 27
e 10 14
e 10 17
e 10 18
e 10 20
e 10 23
e 11 14
e 11 23
e 11 25
e 12 18
e 12 21
e 13 25
e 14 18
e 14 20
e 14 26
e 15 16
e 15 17
e 15 19
e 15 21
e 15 22
e 15 24
e 15 25
e 16 17
e 16 18
e 16 20
e 17 18
e 17 24
e 17 25
e 18 23
e 19 21
e 19 24
e 19 26
e 19 27
e 20 22
e 20 24
e 20 27
e 21 23
e 21 25
e 21 26
e 21 28
e 22 23
e 23 25
e 23 26
e 23 28